(set-logic ALL)
(set-option :produce-models true)
(declare-sort BoundSet 0)
(declare-sort UnboundSet 0)
(declare-fun IsLargeGroup (BoundSet) Bool)
(declare-fun IsBusyCity (BoundSet) Bool)
(declare-fun IsAtNight (BoundSet) Bool)
(declare-fun IsWalking (BoundSet) Bool)
(declare-fun IsInCity (BoundSet) Bool)
(assert (not (=> (and (exists ((a BoundSet)) (exists ((b BoundSet)) (and (IsLargeGroup a) (and (IsBusyCity b) (and (IsAtNight a) (IsWalking a)))))) (and (forall ((f BoundSet)) (forall ((g BoundSet)) (=> (IsInCity f) (IsLargeGroup g)))) (forall ((i BoundSet)) (forall ((h BoundSet)) (=> (IsBusyCity h) (IsInCity i)))))) (exists ((d BoundSet)) (and (IsWalking d) (IsInCity d))))))
(check-sat)
(get-model)